Route #1: 55 63 41 7 93 36 58 78 101 60 38 25 2 57 12 28 35 112 103 73 88
Route #2: 51 53 39 30 33 92 22 13 3 44 77 114 65 43 40 94 17 95 11
Route #3: 117 62 120 85 56 71 79 9 115 91 4 46 113 72 97 108 21
Route #4: 32 26 80 16 10 45 19 76 47 67 109 118 27 6 104 18 100 50 81 89
Route #5: 54 82 70 69 61 96 23 5 52 64 105 106 102 48 90 86 42 14 99 83 110
Route #6: 74 68 34 37 116 49 87 66 75 111 107 8 98 20 29 84 59 15 24 119 31
